2380, 0, 0, 53, 0
2381, 0, 1, 67, 2
2382, 0, 2, 97, 1
2383, 0, 3, 31, 3
2384, 1, 0, 68, 3
2385, 1, 1, 51, 1
2386, 1, 2, 57, 2
2387, 1, 3, 44, 0
2388, 2, 0, 63, 1
2389, 2, 1, 32, 2
2390, 2, 2, 58, 3
2391, 2, 3, 60, 0
2392, 3, 0, 53, 1
2393, 3, 1, 56, 0
2394, 3, 2, 98, 3
2395, 3, 3, 39, 2
